; POP PUSH cw_2 PUSH cw_1 POP SLOAD => POP PUSH cw_2 SLOAD
(set-option :produce-proofs true)
; 
(set-info :status unknown)
(declare-fun storage_t ((_ BitVec 256) (_ BitVec 256) (_ BitVec 256) (_ BitVec 256) Int (_ BitVec 256)) (_ BitVec 256))
(declare-fun w_1 () (_ BitVec 256))
(declare-fun w_2 () (_ BitVec 256))
(declare-fun storage_s ((_ BitVec 256) (_ BitVec 256) (_ BitVec 256) (_ BitVec 256) Int (_ BitVec 256)) (_ BitVec 256))
(declare-fun exc_halt_t (Int) Bool)
(declare-fun exc_halt_s (Int) Bool)
(declare-fun stack_t ((_ BitVec 256) (_ BitVec 256) (_ BitVec 256) (_ BitVec 256) Int (_ BitVec 6)) (_ BitVec 256))
(declare-fun stack_s ((_ BitVec 256) (_ BitVec 256) (_ BitVec 256) (_ BitVec 256) Int (_ BitVec 6)) (_ BitVec 256))
(declare-fun sc_t (Int) (_ BitVec 6))
(declare-fun sc_s (Int) (_ BitVec 6))
(declare-fun used_gas_t ((_ BitVec 256) (_ BitVec 256) (_ BitVec 256) (_ BitVec 256) Int) Int)
(declare-fun used_gas_s ((_ BitVec 256) (_ BitVec 256) (_ BitVec 256) (_ BitVec 256) Int) Int)
(assert
 (exists ((x_0 (_ BitVec 256)) (x_SLOAD_0 (_ BitVec 256)) )(let (($x9726 (forall ((w (_ BitVec 256)) )(let ((?x7876 (storage_t x_0 x_SLOAD_0 w_2 w_1 3 w)))
 (let ((?x7222 (storage_s x_0 x_SLOAD_0 w_2 w_1 5 w)))
 (= ?x7222 ?x7876))))
 ))
 (let (($x3614 (exc_halt_t 3)))
 (let (($x11317 (exc_halt_s 5)))
 (let (($x3494 (= $x11317 $x3614)))
 (let (($x3099 (forall ((n (_ BitVec 6)) )(let ((?x3292 (stack_t x_0 x_SLOAD_0 w_2 w_1 3 n)))
 (let ((?x8362 (stack_s x_0 x_SLOAD_0 w_2 w_1 5 n)))
 (let (($x9434 (= ?x8362 ?x3292)))
 (or (bvsle (sc_t 3) n) $x9434)))))
 ))
 (let ((?x11304 (sc_t 3)))
 (let ((?x4319 (sc_s 5)))
 (let (($x1839 (= ?x4319 ?x11304)))
 (let ((?x4214 (used_gas_t x_0 x_SLOAD_0 w_2 w_1 0)))
 (let ((?x11478 (used_gas_s x_0 x_SLOAD_0 w_2 w_1 0)))
 (let (($x6568 (= ?x11478 ?x4214)))
 (let (($x10267 (forall ((w (_ BitVec 256)) )(let ((?x3171 (storage_t x_0 x_SLOAD_0 w_2 w_1 0 w)))
 (let ((?x3962 (storage_s x_0 x_SLOAD_0 w_2 w_1 0 w)))
 (= ?x3962 ?x3171))))
 ))
 (let (($x56 (exc_halt_t 0)))
 (let (($x57 (exc_halt_s 0)))
 (let (($x58 (= $x57 $x56)))
 (let (($x10125 (forall ((n (_ BitVec 6)) )(let ((?x6451 (stack_t x_0 x_SLOAD_0 w_2 w_1 0 n)))
 (let ((?x6228 (stack_s x_0 x_SLOAD_0 w_2 w_1 0 n)))
 (let (($x8632 (= ?x6228 ?x6451)))
 (or (bvsle (sc_t 0) n) $x8632)))))
 ))
 (let ((?x63 (sc_t 0)))
 (let ((?x72 (sc_s 0)))
 (let (($x73 (= ?x72 ?x63)))
 (let (($x2065 (= $x3614 (or (exc_halt_t 2) (not (bvsle (_ bv0 6) (bvadd (_ bv63 6) (sc_t 2))))))))
 (let (($x7400 (forall ((w (_ BitVec 256)) )(let ((?x7556 (storage_t x_0 x_SLOAD_0 w_2 w_1 2 w)))
 (let ((?x7876 (storage_t x_0 x_SLOAD_0 w_2 w_1 3 w)))
 (= ?x7876 ?x7556))))
 ))
 (let (($x2813 (forall ((n (_ BitVec 6)) )(let ((?x10107 (stack_t x_0 x_SLOAD_0 w_2 w_1 2 n)))
 (let ((?x3292 (stack_t x_0 x_SLOAD_0 w_2 w_1 3 n)))
 (or (= ?x3292 ?x10107) (bvsle (bvadd (_ bv63 6) (sc_t 2)) n)))))
 ))
 (let (($x5509 (= (used_gas_t x_0 x_SLOAD_0 w_2 w_1 3) (+ 200 (used_gas_t x_0 x_SLOAD_0 w_2 w_1 2)))))
 (let ((?x8688 (storage_t x_0 x_SLOAD_0 w_2 w_1 2 (stack_t x_0 x_SLOAD_0 w_2 w_1 2 (bvadd (_ bv63 6) (sc_t 2))))))
 (let (($x8377 (exc_halt_t 1)))
 (let (($x543 (or $x8377 (not (= ((_ extract 6 6) (bvadd (_ bv1 7) (concat (_ bv0 1) (sc_t 1)))) (_ bv0 1))))))
 (let (($x4045 (exc_halt_t 2)))
 (let (($x6834 (forall ((w (_ BitVec 256)) )(let ((?x697 (storage_t x_0 x_SLOAD_0 w_2 w_1 1 w)))
 (let ((?x7556 (storage_t x_0 x_SLOAD_0 w_2 w_1 2 w)))
 (= ?x7556 ?x697))))
 ))
 (let (($x9419 (forall ((n (_ BitVec 6)) )(let ((?x1945 (stack_t x_0 x_SLOAD_0 w_2 w_1 1 n)))
 (let ((?x10107 (stack_t x_0 x_SLOAD_0 w_2 w_1 2 n)))
 (or (bvsle (sc_t 1) n) (= ?x10107 ?x1945)))))
 ))
 (let ((?x6833 (used_gas_t x_0 x_SLOAD_0 w_2 w_1 2)))
 (let (($x9761 (forall ((w (_ BitVec 256)) )(let ((?x3171 (storage_t x_0 x_SLOAD_0 w_2 w_1 0 w)))
 (let ((?x697 (storage_t x_0 x_SLOAD_0 w_2 w_1 1 w)))
 (= ?x697 ?x3171))))
 ))
 (let (($x1850 (forall ((n (_ BitVec 6)) )(let ((?x6451 (stack_t x_0 x_SLOAD_0 w_2 w_1 0 n)))
 (let ((?x1945 (stack_t x_0 x_SLOAD_0 w_2 w_1 1 n)))
 (or (= ?x1945 ?x6451) (bvsle (bvadd (_ bv63 6) (sc_t 0)) n)))))
 ))
 (let (($x6722 (= $x11317 (or (exc_halt_s 4) (not (bvsle (_ bv0 6) (bvadd (_ bv63 6) (sc_s 4))))))))
 (let (($x4673 (forall ((w (_ BitVec 256)) )(let ((?x1820 (storage_s x_0 x_SLOAD_0 w_2 w_1 4 w)))
 (let ((?x7222 (storage_s x_0 x_SLOAD_0 w_2 w_1 5 w)))
 (= ?x7222 ?x1820))))
 ))
 (let (($x997 (forall ((n (_ BitVec 6)) )(let ((?x8544 (stack_s x_0 x_SLOAD_0 w_2 w_1 4 n)))
 (let ((?x8362 (stack_s x_0 x_SLOAD_0 w_2 w_1 5 n)))
 (or (= ?x8362 ?x8544) (bvsle (bvadd (_ bv63 6) (sc_s 4)) n)))))
 ))
 (let (($x4538 (= (used_gas_s x_0 x_SLOAD_0 w_2 w_1 5) (+ 200 (used_gas_s x_0 x_SLOAD_0 w_2 w_1 4)))))
 (let ((?x4724 (storage_s x_0 x_SLOAD_0 w_2 w_1 4 (stack_s x_0 x_SLOAD_0 w_2 w_1 4 (bvadd (_ bv63 6) (sc_s 4))))))
 (let (($x7172 (exc_halt_s 4)))
 (let (($x11105 (= $x7172 (or (exc_halt_s 3) (not (bvsle (_ bv0 6) (bvadd (_ bv63 6) (sc_s 3))))))))
 (let (($x6854 (forall ((w (_ BitVec 256)) )(let ((?x11560 (storage_s x_0 x_SLOAD_0 w_2 w_1 3 w)))
 (let ((?x1820 (storage_s x_0 x_SLOAD_0 w_2 w_1 4 w)))
 (= ?x1820 ?x11560))))
 ))
 (let (($x4835 (forall ((n (_ BitVec 6)) )(let ((?x5953 (stack_s x_0 x_SLOAD_0 w_2 w_1 3 n)))
 (let ((?x8544 (stack_s x_0 x_SLOAD_0 w_2 w_1 4 n)))
 (or (= ?x8544 ?x5953) (bvsle (bvadd (_ bv63 6) (sc_s 3)) n)))))
 ))
 (let ((?x4977 (used_gas_s x_0 x_SLOAD_0 w_2 w_1 4)))
 (let (($x247 (exc_halt_s 2)))
 (let (($x105 (or $x247 (not (= ((_ extract 6 6) (bvadd (_ bv1 7) (concat (_ bv0 1) (sc_s 2)))) (_ bv0 1))))))
 (let (($x292 (exc_halt_s 3)))
 (let (($x4631 (forall ((w (_ BitVec 256)) )(let ((?x11426 (storage_s x_0 x_SLOAD_0 w_2 w_1 2 w)))
 (let ((?x11560 (storage_s x_0 x_SLOAD_0 w_2 w_1 3 w)))
 (= ?x11560 ?x11426))))
 ))
 (let (($x6285 (forall ((n (_ BitVec 6)) )(let ((?x10724 (stack_s x_0 x_SLOAD_0 w_2 w_1 2 n)))
 (let ((?x5953 (stack_s x_0 x_SLOAD_0 w_2 w_1 3 n)))
 (or (bvsle (sc_s 2) n) (= ?x5953 ?x10724)))))
 ))
 (let ((?x240 (used_gas_s x_0 x_SLOAD_0 w_2 w_1 3)))
 (let (($x189 (exc_halt_s 1)))
 (let (($x3587 (or $x189 (not (= ((_ extract 6 6) (bvadd (_ bv1 7) (concat (_ bv0 1) (sc_s 1)))) (_ bv0 1))))))
 (let (($x9550 (forall ((w (_ BitVec 256)) )(let ((?x834 (storage_s x_0 x_SLOAD_0 w_2 w_1 1 w)))
 (let ((?x11426 (storage_s x_0 x_SLOAD_0 w_2 w_1 2 w)))
 (= ?x11426 ?x834))))
 ))
 (let (($x8014 (forall ((n (_ BitVec 6)) )(let ((?x4405 (stack_s x_0 x_SLOAD_0 w_2 w_1 1 n)))
 (let ((?x10724 (stack_s x_0 x_SLOAD_0 w_2 w_1 2 n)))
 (or (bvsle (sc_s 1) n) (= ?x10724 ?x4405)))))
 ))
 (let ((?x2526 (used_gas_s x_0 x_SLOAD_0 w_2 w_1 2)))
 (let (($x3234 (forall ((w (_ BitVec 256)) )(let ((?x3962 (storage_s x_0 x_SLOAD_0 w_2 w_1 0 w)))
 (let ((?x834 (storage_s x_0 x_SLOAD_0 w_2 w_1 1 w)))
 (= ?x834 ?x3962))))
 ))
 (let (($x3656 (forall ((n (_ BitVec 6)) )(let ((?x6228 (stack_s x_0 x_SLOAD_0 w_2 w_1 0 n)))
 (let ((?x4405 (stack_s x_0 x_SLOAD_0 w_2 w_1 1 n)))
 (or (= ?x4405 ?x6228) (bvsle (bvadd (_ bv63 6) (sc_s 0)) n)))))
 ))
 (let (($x10528 (forall ((w (_ BitVec 256)) )(let (($x7098 (= w (stack_s x_0 x_SLOAD_0 w_2 w_1 4 (bvadd (_ bv63 6) (sc_s 4))))))
 (let ((?x3962 (storage_s x_0 x_SLOAD_0 w_2 w_1 0 w)))
 (= ?x3962 (ite $x7098 x_SLOAD_0 (_ bv0 256))))))
 ))
 (let (($x4620 (= ?x11478 0)))
 (let (($x420 (= (stack_s x_0 x_SLOAD_0 w_2 w_1 0 (_ bv0 6)) x_0)))
 (let (($x7315 (= ?x72 (_ bv1 6))))
 (and $x7315 $x420 (not $x57) $x4620 $x10528 (= (used_gas_s x_0 x_SLOAD_0 w_2 w_1 1) (+ 2 ?x11478)) (= (sc_s 1) (bvadd (_ bv63 6) ?x72)) $x3656 $x3234 (= $x189 (or $x57 (not (bvsle (_ bv0 6) (bvadd (_ bv63 6) ?x72))))) (= (stack_s x_0 x_SLOAD_0 w_2 w_1 2 (sc_s 1)) w_2) (= ?x2526 (+ 3 (used_gas_s x_0 x_SLOAD_0 w_2 w_1 1))) (= (sc_s 2) (bvadd (_ bv1 6) (sc_s 1))) $x8014 $x9550 (= $x247 $x3587) (= (stack_s x_0 x_SLOAD_0 w_2 w_1 3 (sc_s 2)) w_1) (= ?x240 (+ 3 ?x2526)) (= (sc_s 3) (bvadd (_ bv1 6) (sc_s 2))) $x6285 $x4631 (= $x292 $x105) (= ?x4977 (+ 2 ?x240)) (= (sc_s 4) (bvadd (_ bv63 6) (sc_s 3))) $x4835 $x6854 $x11105 (= (stack_s x_0 x_SLOAD_0 w_2 w_1 5 (bvadd (_ bv63 6) ?x4319)) ?x4724) $x4538 (= ?x4319 (sc_s 4)) $x997 $x4673 $x6722 (= (used_gas_t x_0 x_SLOAD_0 w_2 w_1 1) (+ 2 ?x4214)) (= (sc_t 1) (bvadd (_ bv63 6) ?x63)) $x1850 $x9761 (= $x8377 (or $x56 (not (bvsle (_ bv0 6) (bvadd (_ bv63 6) ?x63))))) (= (stack_t x_0 x_SLOAD_0 w_2 w_1 2 (sc_t 1)) w_2) (= ?x6833 (+ 3 (used_gas_t x_0 x_SLOAD_0 w_2 w_1 1))) (= (sc_t 2) (bvadd (_ bv1 6) (sc_t 1))) $x9419 $x6834 (= $x4045 $x543) (= (stack_t x_0 x_SLOAD_0 w_2 w_1 3 (bvadd (_ bv63 6) ?x11304)) ?x8688) $x5509 (= ?x11304 (sc_t 2)) $x2813 $x7400 $x2065 $x73 $x10125 $x58 $x10267 $x6568 (not (and $x1839 $x3099 $x3494 $x9726)))))))))))))))))))))))))))))))))))))))))))))))))))))))))))))))
 )
(check-sat)
(get-proof)
